SCIP version 5.0.0 [precision: 8 byte] [memory: block] [mode: optimized] [LP solver: NONE] [GitHash: 3bbd232]
Copyright (C) 2002-2017 Konrad-Zuse-Zentrum fuer Informationstechnik Berlin (ZIB)

External codes: 
  Readline EditLine w  GNU library for command line editing (gnu.org/s/readline)
  CppAD 20160000.1     Algorithmic Differentiation of C++ algorithms developed by B. Bell (www.coin-or.org/CppAD)
  ZLIB 1.2.5           General purpose compression library by J. Gailly and M. Adler (zlib.net)
  GMP 6.1.2            GNU Multiple Precision Arithmetic Library developed by T. Granlund (gmplib.org)

user parameter file <scip.set> not found - using default parameters

read problem <../../Split_data/output/statG/0/0_sample_statG.logreg>
============

File name	:	../../Split_data/output/statG/0/0_sample_statG.logreg
Problem name 	:	0_sample_statG
Number of data	:	800
Number of var	:	61
The given data has linear dependence
13 sets of column vector are linearly dependent:

[dim=1] time: 0.039721
[dim=2] time: 0.081077
[dim=3] time: 0.124022
[dim=4] time: 0.166593
[dim=5] time: 0.206763
[dim=6] time: 0.248843
[dim=7] time: 0.302369
[dim=8] time: 0.345796
[dim=9] time: 0.392317
[dim=10] time: 0.44398
[dim=11] time: 0.484488
[dim=12] time: 0.525181
[dim=13] time: 0.566786
[dim=14] time: 0.607344
[dim=15] time: 0.647709
[dim=16] time: 0.694781
[dim=17] time: 0.734281
[dim=18] time: 0.788846
[dim=19] time: 0.826105
[dim=20] time: 0.869541
[dim=21] time: 0.905527
[dim=22] time: 0.940239
[dim=23] time: 0.976421
[dim=24] Time of forward = 1.00874sec.
AIC: 759.244
k: 23

[dim=48] time: 0.127743
[dim=47] time: 0.216259
[dim=46] time: 0.296781
[dim=45] time: 0.384859
[dim=44] time: 0.457085
[dim=43] time: 0.540881
[dim=42] time: 0.615085
[dim=41] time: 0.670688
[dim=40] time: 0.716109
[dim=39] time: 0.775251
[dim=38] time: 0.838345
[dim=37] time: 0.895965
[dim=36] time: 0.938721
[dim=35] time: 1.00716
[dim=34] time: 1.05715
[dim=33] time: 1.11302
[dim=32] time: 1.15964
[dim=31] time: 1.20907
[dim=30] time: 1.26326
[dim=29] time: 1.30519
[dim=28] time: 1.34685
[dim=27] time: 1.37782
[dim=26] time: 1.41281
[dim=25] time: 1.4442
[dim=24] Time of backward = 1.47278sec.
AIC: 762.634
k: 25
